WARNING: for repeatability, setting FPU to use double precision
============================[ Problem Statistics ]=============================
|                                                                             |
|  Number of variables:           800                                         |
|  Number of clauses:           33490                                         |
|  Parse time:                   0.01 s                                       |
|                                                                             |
c ============================[ Search Statistics ]==============================
c | Conflicts |          ORIGINAL         |          LEARNT          | Progress |
c |           |    Vars  Clauses Literals |    Limit  Clauses Lit/Cl |          |
c ===============================================================================
c Switched to VSIDS.
c Switched to LRB.
c Switched to VSIDS.
c Switched to LRB.
c Switched to VSIDS.
c Switched to LRB.
c Switched to VSIDS.
c Switched to LRB.
c Switched to VSIDS.
c Switched to LRB.
c Switched to VSIDS.
c Switched to LRB.
c ===============================================================================
restarts                  : 89115
conflicts                 : 18757226       (5326 /sec)
decisions                 : 37767563       (0.00 % random) (10723 /sec)
propagations              : 789614232      (224187 /sec)
conflict literals         : 5280756322     (8.17 % deleted)

conflicts w/ DIP found    : 11465335       (61.12 % of conflicts)
conflicts w/ dangerous DIP: 0              (0.00 % of conflicts)
conflicts w/ DIP-learning : 4143           (0.02 % of conflicts)
decisions on ext vars     : 478            (0.00 % of decisions)
total ext vars            : 864         
tried delete ext vars     : 188         
deleted ext vars          : 188         
max ext vars              : 676         

Memory used               : 361.00 MB
CPU time                  : 3522.12 s
DIP computation time      : 97.2185 s (2.76 % of total time)
ER_sel time               : 35.9134 s
ER_add time               : 0.005779 s
ER_delC time              : 0 s
ER_delV time              : 0.623483 s
ER_sub time               : 38.5859 s
ER_stat time              : 0 s

INDETERMINATE
